17	4	3
12	20	10	15	32	33	26	
0	0	0	0	0	6	8	1	1	6	8	3	2	3	4
2	5	0	0	0	10	7	8	4	4	3	2	6	17
10	5	0	0	0	2	10	6	3	2	3	3	5	15	17
10	0	4	0	0	7	2	2	10	4	3	2	9	14
8	0	7	0	0	8	7	9	1	6	8	3	10	16	17
100	0	0	9	0	2	1	6	2	2	1	3	7	11	13
175	0	0	0	2	10	2	8	7	5	1	2	8	17
150	0	9	0	0	10	7	10	6	10	1	1	17
125	0	2	0	0	8	7	3	9	6	6	1	17
175	0	0	0	7	2	4	2	10	5	8	2	14	17
50	0	1	0	0	7	6	9	3	8	1	3	12	15	17
250	0	7	0	0	3	7	2	10	3	6	2	17	17
5	9	0	0	0	1	2	3	10	7	2	2	14	17
2	0	6	0	0	1	5	8	3	4	4	2	17	17
2	0	0	4	0	8	5	8	10	4	2	1	17
8	0	0	0	8	8	1	8	6	3	5	1	17
0	0	0	0	0	6	6	1	8	5	4	0
